(declare-const X String)
; XP\d+Acme\s+\x2Fcbn\x2Fnode=Host\x3A\x3Fsearch\x3DversionContact
(assert (str.in_re X (re.++ (str.to_re "XP") (re.+ (re.range "0" "9")) (str.to_re "Acme") (re.+ (re.union (str.to_re " ") (str.to_re "\u{9}") (str.to_re "\u{a}") (str.to_re "\u{c}") (str.to_re "\u{d}"))) (str.to_re "/cbn/node=Host:?search=versionContact\u{a}"))))
; /[0-9A-Z]{8}\x3abpass\x0a/
(assert (str.in_re X (re.++ (str.to_re "/") ((_ re.loop 8 8) (re.union (re.range "0" "9") (re.range "A" "Z"))) (str.to_re ":bpass\u{a}/\u{a}"))))
; ppcdomain\x2Eco\x2Euk.*Spy\-Locked\s+Exploiter\w+\x2Fr\x2Fkeys\x2FkeysS\x3aUsers\x5cIterenet
(assert (not (str.in_re X (re.++ (str.to_re "ppcdomain.co.uk") (re.* re.allchar) (str.to_re "Spy-Locked") (re.+ (re.union (str.to_re " ") (str.to_re "\u{9}") (str.to_re "\u{a}") (str.to_re "\u{c}") (str.to_re "\u{d}"))) (str.to_re "Exploiter") (re.+ (re.union (re.range "0" "9") (re.range "A" "Z") (re.range "a" "z") (str.to_re "_"))) (str.to_re "/r/keys/keysS:Users\u{5c}Iterenet\u{a}")))))
; /new (java|org)/Ui
(assert (not (str.in_re X (re.++ (str.to_re "/new ") (re.union (str.to_re "java") (str.to_re "org")) (str.to_re "/Ui\u{a}")))))
; name\x3dEmailbadurl\x2Egrandstreetinteractive\x2EcomHost\x3Astepwww\x2Ekornputers\x2Ecom
(assert (not (str.in_re X (str.to_re "name=Emailbadurl.grandstreetinteractive.comHost:stepwww.kornputers.com\u{a}"))))
(check-sat)

(exit)
